#variables

variable 						kB equal 0.00008617

variable seed_1	 	 equal 12312

variable seed_2 		 equal 45623

variable seed_3 		 equal 78934

variable 						t equal 300.0

variable						 tlo equal 280.0

variable						 thi equal 320.0

variable						 tdamp equal 0.5

variable						 n_steps_stage_1 equal 10000

variable						 n_steps_stage_2 equal 50000

variable						 n_steps_stage_3 equal 100000

variable						 n_thermo equal 10

variable						 n_dump equal 100


#Geometry

units		          			metal

atom_style      			atomic

boundary       		 	 p p p


#Structure & Neighbor

read_data       			CNT.lmp

neighbor        			2.0 bin

neigh_modify   		delay 0 every 1 check yes


#Forcefield

pair_style      			tersoff

pair_coeff    			  * * C.tersoff C


#Hot and Cold Region 

region          hot block 	INF INF INF INF 1 8

region          cold block  INF INF INF INF 95 102

group           left region  hot

group           right region cold



#Timesteps & Velocity 

timestep	 	0.0005

dump		 	 my_dump all custom ${n_dump} dump.lammpstrj id type x y z

velocity	 	 all create ${t} ${seed_1} dist gaussian

compute		Tleft left temp

compute		 Tright right temp


# --- 1st stage ---

# 1st equilibration run

fix				 nvt_fix all nvt temp ${t} ${t} ${tdamp}

thermo		${n_thermo}

run 			   ${n_steps_stage_1}

timestep	  0.0005

unfix			  nvt_fix

undump		 my_dump

reset_timestep	 0


# --- 2nd stage ---

# 2nd equilibration run

fix						 nve_fix all nve

fix						 left_thermostat left langevin ${thi} ${thi} ${tdamp} ${seed_2} tally yes

fix						 right_thermostat right langevin ${tlo} ${tlo} ${tdamp} ${seed_3} tally yes

fix_modify		  left_thermostat temp Tleft

fix_modify		  right_thermostat temp Tright

variable			   tdiff equal c_Tleft-c_Tright

thermo_style	 custom step temp c_Tleft c_Tright & f_left_thermostat f_right_thermostat v_tdiff

thermo 			   ${n_thermo}

run					   ${n_steps_stage_2}


# --- 3rd stage ---

# thermal conductivity calculation

# reset langevin thermostats to zero energy accumulation

unfix					 left_thermostat

unfix					 right_thermostat

fix						 left_thermostat left langevin ${thi} ${thi} ${tdamp} ${seed_2} tally yes

fix						 right_thermostat right langevin ${tlo} ${tlo} ${tdamp} ${seed_3} tally yes

fix_modify		  left_thermostat temp Tleft

fix_modify		  right_thermostat temp Tright

fix						 ave all ave/time 10 100 1000 v_tdiff ave running

thermo 			  1000

thermo_style	 custom step temp c_Tleft c_Tright & f_left_thermostat f_right_thermostat v_tdiff f_ave

compute			 ke all ke/atom

variable			   temp atom c_ke/(1.5*${kB})


## ###  Tempeteture Data Collect

compute			 layers all chunk/atom bin/1d z lower 1.82 units box

fix						 temp_profile all ave/chunk 10 100 1000 layers & v_temp file profile.langevin

run					    ${n_steps_stage_3}  